words_train/words_496_SAT.qaiger
aag 88 16 0 1 72
16
30
18
2
6
32
4
12
10
20
14
22
8
28
26
24
177
34 18 3
36 21 5
38 37 35
40 23 19
42 40 21
44 23 18
46 44 21
48 47 43
50 22 20
52 51 48
54 53 7
56 55 38
58 48 24
60 49 25
62 61 59
64 63 9
66 65 56
68 46 25
70 42 25
72 70 27
74 71 26
76 75 73
78 76 68
80 77 69
82 81 79
84 82 11
86 85 66
88 72 29
90 73 28
92 91 89
94 92 78
96 95 89
98 96 30
100 99 15
102 33 17
104 103 101
106 97 31
108 83 11
110 109 66
112 93 79
114 113 95
116 115 13
118 117 110
120 119 107
122 120 105
124 123 87
126 114 13
128 126 100
130 128 102
132 131 110
134 32 17
136 135 119
138 137 106
140 127 85
142 141 111
144 52 7
146 145 38
148 144 39
150 149 147
152 20 3
154 152 19
156 154 5
158 156 150
160 62 9
162 160 57
164 161 56
166 165 163
168 166 158
170 168 143
172 170 139
174 172 133
176 174 124
i0 1 x[7]
i1 2 z[6]
i2 2 z[0]
i3 1 x[0]
i4 1 x[2]
i5 2 z[7]
i6 1 x[1]
i7 1 x[5]
i8 1 x[4]
i9 2 z[1]
i10 1 x[6]
i11 2 z[2]
i12 1 x[3]
i13 2 z[5]
i14 2 z[4]
i15 2 z[3]
o0 bool[0]
c
simplified
  !=
    1 x
    add
      or
        subtract
          1
          2 z
        1 x
      1
