words_train/words_496_SAT.qaiger.qdimacs
p cnf 88 217
a 1 2 3 4 5 6 7 8 0
e 9 10 11 12 13 14 15 16 17 18 19 20 21 22 23 24 25 26 27 28 29 30 31 32 33 34 35 36 37 38 39 40 41 42 43 44 45 46 47 48 49 50 51 52 53 54 55 56 57 58 59 60 61 62 63 64 65 66 67 68 69 70 71 72 73 74 75 76 77 78 79 80 81 82 83 84 85 86 87 88 0
-9 1 17 0
9 -17 0
-1 -17 0
10 2 18 0
-10 -18 0
-2 -18 0
18 17 19 0
-18 -19 0
-17 -19 0
11 9 20 0
-11 -20 0
-9 -20 0
-20 10 21 0
20 -21 0
-10 -21 0
11 -9 22 0
-11 -22 0
9 -22 0
-22 10 23 0
22 -23 0
-10 -23 0
23 21 24 0
-23 -24 0
-21 -24 0
-11 -10 25 0
11 -25 0
10 -25 0
25 -24 26 0
-25 -26 0
24 -26 0
26 3 27 0
-26 -27 0
-3 -27 0
27 -19 28 0
-27 -28 0
19 -28 0
-24 -12 29 0
24 -29 0
12 -29 0
24 12 30 0
-24 -30 0
-12 -30 0
30 29 31 0
-30 -31 0
-29 -31 0
31 4 32 0
-31 -32 0
-4 -32 0
32 -28 33 0
-32 -33 0
28 -33 0
-23 12 34 0
23 -34 0
-12 -34 0
-21 12 35 0
21 -35 0
-12 -35 0
-35 13 36 0
35 -36 0
-13 -36 0
35 -13 37 0
-35 -37 0
13 -37 0
37 36 38 0
-37 -38 0
-36 -38 0
-38 -34 39 0
38 -39 0
34 -39 0
38 34 40 0
-38 -40 0
-34 -40 0
40 39 41 0
-40 -41 0
-39 -41 0
-41 5 42 0
41 -42 0
-5 -42 0
42 -33 43 0
-42 -43 0
33 -43 0
-36 14 44 0
36 -44 0
-14 -44 0
36 -14 45 0
-36 -45 0
14 -45 0
45 44 46 0
-45 -46 0
-44 -46 0
-46 -39 47 0
46 -47 0
39 -47 0
47 44 48 0
-47 -48 0
-44 -48 0
-48 -15 49 0
48 -49 0
15 -49 0
49 7 50 0
-49 -50 0
-7 -50 0
16 8 51 0
-16 -51 0
-8 -51 0
51 50 52 0
-51 -52 0
-50 -52 0
48 15 53 0
-48 -53 0
-15 -53 0
41 5 54 0
-41 -54 0
-5 -54 0
54 -33 55 0
-54 -55 0
33 -55 0
46 39 56 0
-46 -56 0
-39 -56 0
56 47 57 0
-56 -57 0
-47 -57 0
57 6 58 0
-57 -58 0
-6 -58 0
58 -55 59 0
-58 -59 0
55 -59 0
59 53 60 0
-59 -60 0
-53 -60 0
-60 52 61 0
60 -61 0
-52 -61 0
61 43 62 0
-61 -62 0
-43 -62 0
-57 6 63 0
57 -63 0
-6 -63 0
-63 -50 64 0
63 -64 0
50 -64 0
-64 -51 65 0
64 -65 0
51 -65 0
65 -55 66 0
-65 -66 0
55 -66 0
-16 8 67 0
16 -67 0
-8 -67 0
67 59 68 0
-67 -68 0
-59 -68 0
68 -53 69 0
-68 -69 0
53 -69 0
63 42 70 0
-63 -70 0
-42 -70 0
70 55 71 0
-70 -71 0
-55 -71 0
-26 3 72 0
26 -72 0
-3 -72 0
72 -19 73 0
-72 -73 0
19 -73 0
-72 19 74 0
72 -74 0
-19 -74 0
74 73 75 0
-74 -75 0
-73 -75 0
-10 1 76 0
10 -76 0
-1 -76 0
-76 9 77 0
76 -77 0
-9 -77 0
-77 2 78 0
77 -78 0
-2 -78 0
-78 -75 79 0
78 -79 0
75 -79 0
-31 4 80 0
31 -80 0
-4 -80 0
-80 28 81 0
80 -81 0
-28 -81 0
80 -28 82 0
-80 -82 0
28 -82 0
82 81 83 0
-82 -83 0
-81 -83 0
-83 -79 84 0
83 -84 0
79 -84 0
-84 71 85 0
84 -85 0
-71 -85 0
-85 69 86 0
85 -86 0
-69 -86 0
-86 66 87 0
86 -87 0
-66 -87 0
-87 -62 88 0
87 -88 0
62 -88 0
-88 0
